p cnf 22 11
e 1 2 3 0
a 4 5 6 7 0
e 8 0
a 9 10 0
e 11 0
a 12 0
e 13 14 0
a 15 16 17 0
e 18 0
a 19 0
e 20 21 22 0
13 -4 5 17 0
-9 -18 20 21 -14 0
-18 1 -11 -20 0
7 10 20 -12 -4 0
17 -12 19 0
8 -19 16 0
-10 -11 -16 -7 0
-10 -3 -2 7 0
12 -10 -18 -17 0
1 -17 0
17 -21 13 22 0
